Problem:    MTAV_empate
Rows:       103
Columns:    401 (401 integer, 400 binary)
Non-zeros:  2821
Status:     INTEGER OPTIMAL
Objective:  resultado = 9 (MINimum)

   No.   Row name        Activity     Lower bound   Upper bound
------ ------------    ------------- ------------- -------------
     1 resultado                   9                             
     2 z_menorIgual[c0]
                                   6            -0               
     3 z_menorIgual[c1]
                                   7            -0               
     4 z_menorIgual[c2]
                                   7            -0               
     5 z_menorIgual[c3]
                                   7            -0               
     6 z_menorIgual[c4]
                                   8            -0               
     7 z_menorIgual[c5]
                                   7            -0               
     8 z_menorIgual[c6]
                                   8            -0               
     9 z_menorIgual[c7]
                                   8            -0               
    10 z_menorIgual[c8]
                                   2            -0               
    11 z_menorIgual[c9]
                                   0            -0               
    12 z_menorIgual[c10]
                                   5            -0               
    13 z_menorIgual[c11]
                                   6            -0               
    14 z_menorIgual[c12]
                                   7            -0               
    15 z_menorIgual[c13]
                                   8            -0               
    16 z_menorIgual[c14]
                                   5            -0               
    17 z_menorIgual[c15]
                                   2            -0               
    18 z_menorIgual[c16]
                                   8            -0               
    19 z_menorIgual[c17]
                                   6            -0               
    20 z_menorIgual[c18]
                                   7            -0               
    21 z_menorIgual[c19]
                                   7            -0               
    22 unicaAsignacionCoperativista_mayorIgual[c0]
                                   1             1               
    23 unicaAsignacionCoperativista_mayorIgual[c1]
                                   1             1               
    24 unicaAsignacionCoperativista_mayorIgual[c2]
                                   1             1               
    25 unicaAsignacionCoperativista_mayorIgual[c3]
                                   1             1               
    26 unicaAsignacionCoperativista_mayorIgual[c4]
                                   1             1               
    27 unicaAsignacionCoperativista_mayorIgual[c5]
                                   1             1               
    28 unicaAsignacionCoperativista_mayorIgual[c6]
                                   1             1               
    29 unicaAsignacionCoperativista_mayorIgual[c7]
                                   1             1               
    30 unicaAsignacionCoperativista_mayorIgual[c8]
                                   1             1               
    31 unicaAsignacionCoperativista_mayorIgual[c9]
                                   1             1               
    32 unicaAsignacionCoperativista_mayorIgual[c10]
                                   1             1               
    33 unicaAsignacionCoperativista_mayorIgual[c11]
                                   1             1               
    34 unicaAsignacionCoperativista_mayorIgual[c12]
                                   1             1               
    35 unicaAsignacionCoperativista_mayorIgual[c13]
                                   1             1               
    36 unicaAsignacionCoperativista_mayorIgual[c14]
                                   1             1               
    37 unicaAsignacionCoperativista_mayorIgual[c15]
                                   1             1               
    38 unicaAsignacionCoperativista_mayorIgual[c16]
                                   1             1               
    39 unicaAsignacionCoperativista_mayorIgual[c17]
                                   1             1               
    40 unicaAsignacionCoperativista_mayorIgual[c18]
                                   1             1               
    41 unicaAsignacionCoperativista_mayorIgual[c19]
                                   1             1               
    42 unicaAsignacionCoperativista_menorIgual[c0]
                                   1                           1 
    43 unicaAsignacionCoperativista_menorIgual[c1]
                                   1                           1 
    44 unicaAsignacionCoperativista_menorIgual[c2]
                                   1                           1 
    45 unicaAsignacionCoperativista_menorIgual[c3]
                                   1                           1 
    46 unicaAsignacionCoperativista_menorIgual[c4]
                                   1                           1 
    47 unicaAsignacionCoperativista_menorIgual[c5]
                                   1                           1 
    48 unicaAsignacionCoperativista_menorIgual[c6]
                                   1                           1 
    49 unicaAsignacionCoperativista_menorIgual[c7]
                                   1                           1 
    50 unicaAsignacionCoperativista_menorIgual[c8]
                                   1                           1 
    51 unicaAsignacionCoperativista_menorIgual[c9]
                                   1                           1 
    52 unicaAsignacionCoperativista_menorIgual[c10]
                                   1                           1 
    53 unicaAsignacionCoperativista_menorIgual[c11]
                                   1                           1 
    54 unicaAsignacionCoperativista_menorIgual[c12]
                                   1                           1 
    55 unicaAsignacionCoperativista_menorIgual[c13]
                                   1                           1 
    56 unicaAsignacionCoperativista_menorIgual[c14]
                                   1                           1 
    57 unicaAsignacionCoperativista_menorIgual[c15]
                                   1                           1 
    58 unicaAsignacionCoperativista_menorIgual[c16]
                                   1                           1 
    59 unicaAsignacionCoperativista_menorIgual[c17]
                                   1                           1 
    60 unicaAsignacionCoperativista_menorIgual[c18]
                                   1                           1 
    61 unicaAsignacionCoperativista_menorIgual[c19]
                                   1                           1 
    62 unicaAsignacionCasa_mayorIgual[v0]
                                   1             1               
    63 unicaAsignacionCasa_mayorIgual[v1]
                                   1             1               
    64 unicaAsignacionCasa_mayorIgual[v2]
                                   1             1               
    65 unicaAsignacionCasa_mayorIgual[v3]
                                   1             1               
    66 unicaAsignacionCasa_mayorIgual[v4]
                                   1             1               
    67 unicaAsignacionCasa_mayorIgual[v5]
                                   1             1               
    68 unicaAsignacionCasa_mayorIgual[v6]
                                   1             1               
    69 unicaAsignacionCasa_mayorIgual[v7]
                                   1             1               
    70 unicaAsignacionCasa_mayorIgual[v8]
                                   1             1               
    71 unicaAsignacionCasa_mayorIgual[v9]
                                   1             1               
    72 unicaAsignacionCasa_mayorIgual[v10]
                                   1             1               
    73 unicaAsignacionCasa_mayorIgual[v11]
                                   1             1               
    74 unicaAsignacionCasa_mayorIgual[v12]
                                   1             1               
    75 unicaAsignacionCasa_mayorIgual[v13]
                                   1             1               
    76 unicaAsignacionCasa_mayorIgual[v14]
                                   1             1               
    77 unicaAsignacionCasa_mayorIgual[v15]
                                   1             1               
    78 unicaAsignacionCasa_mayorIgual[v16]
                                   1             1               
    79 unicaAsignacionCasa_mayorIgual[v17]
                                   1             1               
    80 unicaAsignacionCasa_mayorIgual[v18]
                                   1             1               
    81 unicaAsignacionCasa_mayorIgual[v19]
                                   1             1               
    82 unicaAsignacionCasa_menorIgual[v0]
                                   1                           1 
    83 unicaAsignacionCasa_menorIgual[v1]
                                   1                           1 
    84 unicaAsignacionCasa_menorIgual[v2]
                                   1                           1 
    85 unicaAsignacionCasa_menorIgual[v3]
                                   1                           1 
    86 unicaAsignacionCasa_menorIgual[v4]
                                   1                           1 
    87 unicaAsignacionCasa_menorIgual[v5]
                                   1                           1 
    88 unicaAsignacionCasa_menorIgual[v6]
                                   1                           1 
    89 unicaAsignacionCasa_menorIgual[v7]
                                   1                           1 
    90 unicaAsignacionCasa_menorIgual[v8]
                                   1                           1 
    91 unicaAsignacionCasa_menorIgual[v9]
                                   1                           1 
    92 unicaAsignacionCasa_menorIgual[v10]
                                   1                           1 
    93 unicaAsignacionCasa_menorIgual[v11]
                                   1                           1 
    94 unicaAsignacionCasa_menorIgual[v12]
                                   1                           1 
    95 unicaAsignacionCasa_menorIgual[v13]
                                   1                           1 
    96 unicaAsignacionCasa_menorIgual[v14]
                                   1                           1 
    97 unicaAsignacionCasa_menorIgual[v15]
                                   1                           1 
    98 unicaAsignacionCasa_menorIgual[v16]
                                   1                           1 
    99 unicaAsignacionCasa_menorIgual[v17]
                                   1                           1 
   100 unicaAsignacionCasa_menorIgual[v18]
                                   1                           1 
   101 unicaAsignacionCasa_menorIgual[v19]
                                   1                           1 
   102 s_mayorIgual               59            59               
   103 s_menorIgual               59                          59 

   No. Column name       Activity     Lower bound   Upper bound
------ ------------    ------------- ------------- -------------
     1 x[c0,v0]     *              0             0             1 
     2 x[c0,v1]     *              0             0             1 
     3 x[c0,v2]     *              0             0             1 
     4 x[c0,v3]     *              0             0             1 
     5 x[c0,v4]     *              0             0             1 
     6 x[c0,v5]     *              0             0             1 
     7 x[c0,v6]     *              0             0             1 
     8 x[c0,v7]     *              0             0             1 
     9 x[c0,v8]     *              0             0             1 
    10 x[c0,v9]     *              0             0             1 
    11 x[c0,v10]    *              0             0             1 
    12 x[c0,v11]    *              0             0             1 
    13 x[c0,v12]    *              1             0             1 
    14 x[c0,v13]    *              0             0             1 
    15 x[c0,v14]    *              0             0             1 
    16 x[c0,v15]    *              0             0             1 
    17 x[c0,v16]    *              0             0             1 
    18 x[c0,v17]    *              0             0             1 
    19 x[c0,v18]    *              0             0             1 
    20 x[c0,v19]    *              0             0             1 
    21 x[c1,v0]     *              0             0             1 
    22 x[c1,v1]     *              0             0             1 
    23 x[c1,v2]     *              0             0             1 
    24 x[c1,v3]     *              1             0             1 
    25 x[c1,v4]     *              0             0             1 
    26 x[c1,v5]     *              0             0             1 
    27 x[c1,v6]     *              0             0             1 
    28 x[c1,v7]     *              0             0             1 
    29 x[c1,v8]     *              0             0             1 
    30 x[c1,v9]     *              0             0             1 
    31 x[c1,v10]    *              0             0             1 
    32 x[c1,v11]    *              0             0             1 
    33 x[c1,v12]    *              0             0             1 
    34 x[c1,v13]    *              0             0             1 
    35 x[c1,v14]    *              0             0             1 
    36 x[c1,v15]    *              0             0             1 
    37 x[c1,v16]    *              0             0             1 
    38 x[c1,v17]    *              0             0             1 
    39 x[c1,v18]    *              0             0             1 
    40 x[c1,v19]    *              0             0             1 
    41 x[c2,v0]     *              0             0             1 
    42 x[c2,v1]     *              0             0             1 
    43 x[c2,v2]     *              0             0             1 
    44 x[c2,v3]     *              0             0             1 
    45 x[c2,v4]     *              0             0             1 
    46 x[c2,v5]     *              0             0             1 
    47 x[c2,v6]     *              0             0             1 
    48 x[c2,v7]     *              1             0             1 
    49 x[c2,v8]     *              0             0             1 
    50 x[c2,v9]     *              0             0             1 
    51 x[c2,v10]    *              0             0             1 
    52 x[c2,v11]    *              0             0             1 
    53 x[c2,v12]    *              0             0             1 
    54 x[c2,v13]    *              0             0             1 
    55 x[c2,v14]    *              0             0             1 
    56 x[c2,v15]    *              0             0             1 
    57 x[c2,v16]    *              0             0             1 
    58 x[c2,v17]    *              0             0             1 
    59 x[c2,v18]    *              0             0             1 
    60 x[c2,v19]    *              0             0             1 
    61 x[c3,v0]     *              0             0             1 
    62 x[c3,v1]     *              1             0             1 
    63 x[c3,v2]     *              0             0             1 
    64 x[c3,v3]     *              0             0             1 
    65 x[c3,v4]     *              0             0             1 
    66 x[c3,v5]     *              0             0             1 
    67 x[c3,v6]     *              0             0             1 
    68 x[c3,v7]     *              0             0             1 
    69 x[c3,v8]     *              0             0             1 
    70 x[c3,v9]     *              0             0             1 
    71 x[c3,v10]    *              0             0             1 
    72 x[c3,v11]    *              0             0             1 
    73 x[c3,v12]    *              0             0             1 
    74 x[c3,v13]    *              0             0             1 
    75 x[c3,v14]    *              0             0             1 
    76 x[c3,v15]    *              0             0             1 
    77 x[c3,v16]    *              0             0             1 
    78 x[c3,v17]    *              0             0             1 
    79 x[c3,v18]    *              0             0             1 
    80 x[c3,v19]    *              0             0             1 
    81 x[c4,v0]     *              0             0             1 
    82 x[c4,v1]     *              0             0             1 
    83 x[c4,v2]     *              0             0             1 
    84 x[c4,v3]     *              0             0             1 
    85 x[c4,v4]     *              0             0             1 
    86 x[c4,v5]     *              0             0             1 
    87 x[c4,v6]     *              0             0             1 
    88 x[c4,v7]     *              0             0             1 
    89 x[c4,v8]     *              0             0             1 
    90 x[c4,v9]     *              0             0             1 
    91 x[c4,v10]    *              0             0             1 
    92 x[c4,v11]    *              0             0             1 
    93 x[c4,v12]    *              0             0             1 
    94 x[c4,v13]    *              0             0             1 
    95 x[c4,v14]    *              1             0             1 
    96 x[c4,v15]    *              0             0             1 
    97 x[c4,v16]    *              0             0             1 
    98 x[c4,v17]    *              0             0             1 
    99 x[c4,v18]    *              0             0             1 
   100 x[c4,v19]    *              0             0             1 
   101 x[c5,v0]     *              0             0             1 
   102 x[c5,v1]     *              0             0             1 
   103 x[c5,v2]     *              0             0             1 
   104 x[c5,v3]     *              0             0             1 
   105 x[c5,v4]     *              0             0             1 
   106 x[c5,v5]     *              0             0             1 
   107 x[c5,v6]     *              0             0             1 
   108 x[c5,v7]     *              0             0             1 
   109 x[c5,v8]     *              1             0             1 
   110 x[c5,v9]     *              0             0             1 
   111 x[c5,v10]    *              0             0             1 
   112 x[c5,v11]    *              0             0             1 
   113 x[c5,v12]    *              0             0             1 
   114 x[c5,v13]    *              0             0             1 
   115 x[c5,v14]    *              0             0             1 
   116 x[c5,v15]    *              0             0             1 
   117 x[c5,v16]    *              0             0             1 
   118 x[c5,v17]    *              0             0             1 
   119 x[c5,v18]    *              0             0             1 
   120 x[c5,v19]    *              0             0             1 
   121 x[c6,v0]     *              0             0             1 
   122 x[c6,v1]     *              0             0             1 
   123 x[c6,v2]     *              0             0             1 
   124 x[c6,v3]     *              0             0             1 
   125 x[c6,v4]     *              0             0             1 
   126 x[c6,v5]     *              0             0             1 
   127 x[c6,v6]     *              0             0             1 
   128 x[c6,v7]     *              0             0             1 
   129 x[c6,v8]     *              0             0             1 
   130 x[c6,v9]     *              0             0             1 
   131 x[c6,v10]    *              0             0             1 
   132 x[c6,v11]    *              0             0             1 
   133 x[c6,v12]    *              0             0             1 
   134 x[c6,v13]    *              0             0             1 
   135 x[c6,v14]    *              0             0             1 
   136 x[c6,v15]    *              0             0             1 
   137 x[c6,v16]    *              0             0             1 
   138 x[c6,v17]    *              0             0             1 
   139 x[c6,v18]    *              1             0             1 
   140 x[c6,v19]    *              0             0             1 
   141 x[c7,v0]     *              0             0             1 
   142 x[c7,v1]     *              0             0             1 
   143 x[c7,v2]     *              0             0             1 
   144 x[c7,v3]     *              0             0             1 
   145 x[c7,v4]     *              0             0             1 
   146 x[c7,v5]     *              0             0             1 
   147 x[c7,v6]     *              0             0             1 
   148 x[c7,v7]     *              0             0             1 
   149 x[c7,v8]     *              0             0             1 
   150 x[c7,v9]     *              0             0             1 
   151 x[c7,v10]    *              0             0             1 
   152 x[c7,v11]    *              0             0             1 
   153 x[c7,v12]    *              0             0             1 
   154 x[c7,v13]    *              0             0             1 
   155 x[c7,v14]    *              0             0             1 
   156 x[c7,v15]    *              0             0             1 
   157 x[c7,v16]    *              1             0             1 
   158 x[c7,v17]    *              0             0             1 
   159 x[c7,v18]    *              0             0             1 
   160 x[c7,v19]    *              0             0             1 
   161 x[c8,v0]     *              0             0             1 
   162 x[c8,v1]     *              0             0             1 
   163 x[c8,v2]     *              0             0             1 
   164 x[c8,v3]     *              0             0             1 
   165 x[c8,v4]     *              0             0             1 
   166 x[c8,v5]     *              0             0             1 
   167 x[c8,v6]     *              1             0             1 
   168 x[c8,v7]     *              0             0             1 
   169 x[c8,v8]     *              0             0             1 
   170 x[c8,v9]     *              0             0             1 
   171 x[c8,v10]    *              0             0             1 
   172 x[c8,v11]    *              0             0             1 
   173 x[c8,v12]    *              0             0             1 
   174 x[c8,v13]    *              0             0             1 
   175 x[c8,v14]    *              0             0             1 
   176 x[c8,v15]    *              0             0             1 
   177 x[c8,v16]    *              0             0             1 
   178 x[c8,v17]    *              0             0             1 
   179 x[c8,v18]    *              0             0             1 
   180 x[c8,v19]    *              0             0             1 
   181 x[c9,v0]     *              0             0             1 
   182 x[c9,v1]     *              0             0             1 
   183 x[c9,v2]     *              0             0             1 
   184 x[c9,v3]     *              0             0             1 
   185 x[c9,v4]     *              1             0             1 
   186 x[c9,v5]     *              0             0             1 
   187 x[c9,v6]     *              0             0             1 
   188 x[c9,v7]     *              0             0             1 
   189 x[c9,v8]     *              0             0             1 
   190 x[c9,v9]     *              0             0             1 
   191 x[c9,v10]    *              0             0             1 
   192 x[c9,v11]    *              0             0             1 
   193 x[c9,v12]    *              0             0             1 
   194 x[c9,v13]    *              0             0             1 
   195 x[c9,v14]    *              0             0             1 
   196 x[c9,v15]    *              0             0             1 
   197 x[c9,v16]    *              0             0             1 
   198 x[c9,v17]    *              0             0             1 
   199 x[c9,v18]    *              0             0             1 
   200 x[c9,v19]    *              0             0             1 
   201 x[c10,v0]    *              0             0             1 
   202 x[c10,v1]    *              0             0             1 
   203 x[c10,v2]    *              0             0             1 
   204 x[c10,v3]    *              0             0             1 
   205 x[c10,v4]    *              0             0             1 
   206 x[c10,v5]    *              0             0             1 
   207 x[c10,v6]    *              0             0             1 
   208 x[c10,v7]    *              0             0             1 
   209 x[c10,v8]    *              0             0             1 
   210 x[c10,v9]    *              0             0             1 
   211 x[c10,v10]   *              0             0             1 
   212 x[c10,v11]   *              0             0             1 
   213 x[c10,v12]   *              0             0             1 
   214 x[c10,v13]   *              0             0             1 
   215 x[c10,v14]   *              0             0             1 
   216 x[c10,v15]   *              0             0             1 
   217 x[c10,v16]   *              0             0             1 
   218 x[c10,v17]   *              0             0             1 
   219 x[c10,v18]   *              0             0             1 
   220 x[c10,v19]   *              1             0             1 
   221 x[c11,v0]    *              0             0             1 
   222 x[c11,v1]    *              0             0             1 
   223 x[c11,v2]    *              0             0             1 
   224 x[c11,v3]    *              0             0             1 
   225 x[c11,v4]    *              0             0             1 
   226 x[c11,v5]    *              0             0             1 
   227 x[c11,v6]    *              0             0             1 
   228 x[c11,v7]    *              0             0             1 
   229 x[c11,v8]    *              0             0             1 
   230 x[c11,v9]    *              0             0             1 
   231 x[c11,v10]   *              0             0             1 
   232 x[c11,v11]   *              1             0             1 
   233 x[c11,v12]   *              0             0             1 
   234 x[c11,v13]   *              0             0             1 
   235 x[c11,v14]   *              0             0             1 
   236 x[c11,v15]   *              0             0             1 
   237 x[c11,v16]   *              0             0             1 
   238 x[c11,v17]   *              0             0             1 
   239 x[c11,v18]   *              0             0             1 
   240 x[c11,v19]   *              0             0             1 
   241 x[c12,v0]    *              0             0             1 
   242 x[c12,v1]    *              0             0             1 
   243 x[c12,v2]    *              0             0             1 
   244 x[c12,v3]    *              0             0             1 
   245 x[c12,v4]    *              0             0             1 
   246 x[c12,v5]    *              0             0             1 
   247 x[c12,v6]    *              0             0             1 
   248 x[c12,v7]    *              0             0             1 
   249 x[c12,v8]    *              0             0             1 
   250 x[c12,v9]    *              0             0             1 
   251 x[c12,v10]   *              1             0             1 
   252 x[c12,v11]   *              0             0             1 
   253 x[c12,v12]   *              0             0             1 
   254 x[c12,v13]   *              0             0             1 
   255 x[c12,v14]   *              0             0             1 
   256 x[c12,v15]   *              0             0             1 
   257 x[c12,v16]   *              0             0             1 
   258 x[c12,v17]   *              0             0             1 
   259 x[c12,v18]   *              0             0             1 
   260 x[c12,v19]   *              0             0             1 
   261 x[c13,v0]    *              1             0             1 
   262 x[c13,v1]    *              0             0             1 
   263 x[c13,v2]    *              0             0             1 
   264 x[c13,v3]    *              0             0             1 
   265 x[c13,v4]    *              0             0             1 
   266 x[c13,v5]    *              0             0             1 
   267 x[c13,v6]    *              0             0             1 
   268 x[c13,v7]    *              0             0             1 
   269 x[c13,v8]    *              0             0             1 
   270 x[c13,v9]    *              0             0             1 
   271 x[c13,v10]   *              0             0             1 
   272 x[c13,v11]   *              0             0             1 
   273 x[c13,v12]   *              0             0             1 
   274 x[c13,v13]   *              0             0             1 
   275 x[c13,v14]   *              0             0             1 
   276 x[c13,v15]   *              0             0             1 
   277 x[c13,v16]   *              0             0             1 
   278 x[c13,v17]   *              0             0             1 
   279 x[c13,v18]   *              0             0             1 
   280 x[c13,v19]   *              0             0             1 
   281 x[c14,v0]    *              0             0             1 
   282 x[c14,v1]    *              0             0             1 
   283 x[c14,v2]    *              0             0             1 
   284 x[c14,v3]    *              0             0             1 
   285 x[c14,v4]    *              0             0             1 
   286 x[c14,v5]    *              0             0             1 
   287 x[c14,v6]    *              0             0             1 
   288 x[c14,v7]    *              0             0             1 
   289 x[c14,v8]    *              0             0             1 
   290 x[c14,v9]    *              0             0             1 
   291 x[c14,v10]   *              0             0             1 
   292 x[c14,v11]   *              0             0             1 
   293 x[c14,v12]   *              0             0             1 
   294 x[c14,v13]   *              0             0             1 
   295 x[c14,v14]   *              0             0             1 
   296 x[c14,v15]   *              1             0             1 
   297 x[c14,v16]   *              0             0             1 
   298 x[c14,v17]   *              0             0             1 
   299 x[c14,v18]   *              0             0             1 
   300 x[c14,v19]   *              0             0             1 
   301 x[c15,v0]    *              0             0             1 
   302 x[c15,v1]    *              0             0             1 
   303 x[c15,v2]    *              0             0             1 
   304 x[c15,v3]    *              0             0             1 
   305 x[c15,v4]    *              0             0             1 
   306 x[c15,v5]    *              1             0             1 
   307 x[c15,v6]    *              0             0             1 
   308 x[c15,v7]    *              0             0             1 
   309 x[c15,v8]    *              0             0             1 
   310 x[c15,v9]    *              0             0             1 
   311 x[c15,v10]   *              0             0             1 
   312 x[c15,v11]   *              0             0             1 
   313 x[c15,v12]   *              0             0             1 
   314 x[c15,v13]   *              0             0             1 
   315 x[c15,v14]   *              0             0             1 
   316 x[c15,v15]   *              0             0             1 
   317 x[c15,v16]   *              0             0             1 
   318 x[c15,v17]   *              0             0             1 
   319 x[c15,v18]   *              0             0             1 
   320 x[c15,v19]   *              0             0             1 
   321 x[c16,v0]    *              0             0             1 
   322 x[c16,v1]    *              0             0             1 
   323 x[c16,v2]    *              0             0             1 
   324 x[c16,v3]    *              0             0             1 
   325 x[c16,v4]    *              0             0             1 
   326 x[c16,v5]    *              0             0             1 
   327 x[c16,v6]    *              0             0             1 
   328 x[c16,v7]    *              0             0             1 
   329 x[c16,v8]    *              0             0             1 
   330 x[c16,v9]    *              1             0             1 
   331 x[c16,v10]   *              0             0             1 
   332 x[c16,v11]   *              0             0             1 
   333 x[c16,v12]   *              0             0             1 
   334 x[c16,v13]   *              0             0             1 
   335 x[c16,v14]   *              0             0             1 
   336 x[c16,v15]   *              0             0             1 
   337 x[c16,v16]   *              0             0             1 
   338 x[c16,v17]   *              0             0             1 
   339 x[c16,v18]   *              0             0             1 
   340 x[c16,v19]   *              0             0             1 
   341 x[c17,v0]    *              0             0             1 
   342 x[c17,v1]    *              0             0             1 
   343 x[c17,v2]    *              0             0             1 
   344 x[c17,v3]    *              0             0             1 
   345 x[c17,v4]    *              0             0             1 
   346 x[c17,v5]    *              0             0             1 
   347 x[c17,v6]    *              0             0             1 
   348 x[c17,v7]    *              0             0             1 
   349 x[c17,v8]    *              0             0             1 
   350 x[c17,v9]    *              0             0             1 
   351 x[c17,v10]   *              0             0             1 
   352 x[c17,v11]   *              0             0             1 
   353 x[c17,v12]   *              0             0             1 
   354 x[c17,v13]   *              1             0             1 
   355 x[c17,v14]   *              0             0             1 
   356 x[c17,v15]   *              0             0             1 
   357 x[c17,v16]   *              0             0             1 
   358 x[c17,v17]   *              0             0             1 
   359 x[c17,v18]   *              0             0             1 
   360 x[c17,v19]   *              0             0             1 
   361 x[c18,v0]    *              0             0             1 
   362 x[c18,v1]    *              0             0             1 
   363 x[c18,v2]    *              0             0             1 
   364 x[c18,v3]    *              0             0             1 
   365 x[c18,v4]    *              0             0             1 
   366 x[c18,v5]    *              0             0             1 
   367 x[c18,v6]    *              0             0             1 
   368 x[c18,v7]    *              0             0             1 
   369 x[c18,v8]    *              0             0             1 
   370 x[c18,v9]    *              0             0             1 
   371 x[c18,v10]   *              0             0             1 
   372 x[c18,v11]   *              0             0             1 
   373 x[c18,v12]   *              0             0             1 
   374 x[c18,v13]   *              0             0             1 
   375 x[c18,v14]   *              0             0             1 
   376 x[c18,v15]   *              0             0             1 
   377 x[c18,v16]   *              0             0             1 
   378 x[c18,v17]   *              1             0             1 
   379 x[c18,v18]   *              0             0             1 
   380 x[c18,v19]   *              0             0             1 
   381 x[c19,v0]    *              0             0             1 
   382 x[c19,v1]    *              0             0             1 
   383 x[c19,v2]    *              1             0             1 
   384 x[c19,v3]    *              0             0             1 
   385 x[c19,v4]    *              0             0             1 
   386 x[c19,v5]    *              0             0             1 
   387 x[c19,v6]    *              0             0             1 
   388 x[c19,v7]    *              0             0             1 
   389 x[c19,v8]    *              0             0             1 
   390 x[c19,v9]    *              0             0             1 
   391 x[c19,v10]   *              0             0             1 
   392 x[c19,v11]   *              0             0             1 
   393 x[c19,v12]   *              0             0             1 
   394 x[c19,v13]   *              0             0             1 
   395 x[c19,v14]   *              0             0             1 
   396 x[c19,v15]   *              0             0             1 
   397 x[c19,v16]   *              0             0             1 
   398 x[c19,v17]   *              0             0             1 
   399 x[c19,v18]   *              0             0             1 
   400 x[c19,v19]   *              0             0             1 
   401 z            *              9                             

Integer feasibility conditions:

KKT.PE: max.abs.err = 0.00e+00 on row 0
        max.rel.err = 0.00e+00 on row 0
        High quality

KKT.PB: max.abs.err = 0.00e+00 on row 0
        max.rel.err = 0.00e+00 on row 0
        High quality

End of output
